50
17734

374 267
716 492
461 903
294 994
32 719
294 692
835 359
899 628
784 440
431 222
180 59
357 399
883 633
105 544
799 584
78 472
946 180
410 503
333 463
797 788
536 394
110 407
704 692
673 636
570 664
860 555
156 288
336 778
941 395
770 242
961 648
352 455
491 595
205 523
902 78
110 98
299 984
165 633
985 660
246 628
267 995
218 338
681 677
912 482
306 884
126 940
39 977
452 956
398 324
606 59
